(set-info :source |printed by MathSAT|)
(declare-fun |!{$(in_main#0)<N>}| () Int)
(declare-fun |!{$(in_main#0)<N>}.next| () Int)
(declare-fun |!{$(in_main#0)<i>}| () Int)
(declare-fun |!{$(in_main#0)<i>}.next| () Int)
(declare-fun |!{$(in_main#0)<j>}| () Int)
(declare-fun |!{$(in_main#0)<j>}.next| () Int)
(declare-fun |!{$(in_main#0)<k>}| () Int)
(declare-fun |!{$(in_main#0)<k>}.next| () Int)
(declare-fun |!{$(in_main#0)<min>}| () Int)
(declare-fun |!{$(in_main#0)<min>}.next| () Int)
(declare-fun |!{$(in_main#0)<array.1>}| () (Array Int Int))
(declare-fun |!{$(in_main#0)<array.1>}.next| () (Array Int Int))
(declare-fun |!{$(in_main#0)<$(in___VERIFIER_nondet_int#0)<h#<__VERIFIER_nondet_int.return>>>}| () Int)
(declare-fun !pc () Int)
(declare-fun !pc.next () Int)
(declare-fun |%{$(in_main#0)<k>}#1| () Int)
(declare-fun |%{$(in_main#0)<array.1>}#1| () (Array Int Int))
(declare-fun |%{$(in_main#0)<min>}#2| () Int)
(declare-fun |%{$(in_main#0)<min>}#4| () Int)
(define-fun .def_32 () Int (! !pc :next !pc.next))
(define-fun .def_35 () Bool (! (= .def_32 2) :init true))
(define-fun .def_186 () Bool (= .def_32 42))
(define-fun .def_116 () Bool (= !pc.next 78))
(define-fun .def_189 () Bool (and .def_116 .def_186))
(define-fun .def_181 () Bool (= |!{$(in_main#0)<k>}.next| 0))
(define-fun .def_10 () Int (! |!{$(in_main#0)<i>}| :next |!{$(in_main#0)<i>}.next|))
(define-fun .def_82 () Bool (= .def_10 |!{$(in_main#0)<i>}.next|))
(define-fun .def_8 () Int (! |!{$(in_main#0)<N>}| :next |!{$(in_main#0)<N>}.next|))
(define-fun .def_80 () Bool (= .def_8 |!{$(in_main#0)<N>}.next|))
(define-fun .def_93 () Bool (and .def_80 .def_82))
(define-fun .def_12 () Int (! |!{$(in_main#0)<j>}| :next |!{$(in_main#0)<j>}.next|))
(define-fun .def_84 () Bool (= .def_12 |!{$(in_main#0)<j>}.next|))
(define-fun .def_94 () Bool (and .def_84 .def_93))
(define-fun .def_182 () Bool (and .def_94 .def_181))
(define-fun .def_16 () Int (! |!{$(in_main#0)<min>}| :next |!{$(in_main#0)<min>}.next|))
(define-fun .def_88 () Bool (= .def_16 |!{$(in_main#0)<min>}.next|))
(define-fun .def_183 () Bool (and .def_88 .def_182))
(define-fun .def_18 () (Array Int Int) (! |!{$(in_main#0)<array.1>}| :next |!{$(in_main#0)<array.1>}.next|))
(define-fun .def_90 () Bool (= .def_18 |!{$(in_main#0)<array.1>}.next|))
(define-fun .def_184 () Bool (and .def_90 .def_183))
(define-fun .def_132 () Bool (<= .def_10 .def_12))
(define-fun .def_129 () Bool (<= .def_12 0))
(define-fun .def_130 () Bool (not .def_129))
(define-fun .def_127 () Bool (<= .def_8 .def_10))
(define-fun .def_128 () Bool (not .def_127))
(define-fun .def_131 () Bool (and .def_128 .def_130))
(define-fun .def_133 () Bool (and .def_131 .def_132))
(define-fun .def_165 () Bool (not .def_133))
(define-fun .def_185 () Bool (and .def_165 .def_184))
(define-fun .def_190 () Bool (and .def_185 .def_189))
(define-fun .def_67 () Bool (= !pc.next 42))
(define-fun .def_187 () Bool (and .def_67 .def_186))
(define-fun .def_175 () Bool (= |!{$(in_main#0)<min>}.next| |%{$(in_main#0)<min>}#4|))
(define-fun .def_170 () Int (* (- 1) |!{$(in_main#0)<j>}.next|))
(define-fun .def_171 () Int (+ .def_12 .def_170))
(define-fun .def_172 () Bool (= .def_171 1))
(define-fun .def_166 () Int (* (- 1) |!{$(in_main#0)<i>}.next|))
(define-fun .def_167 () Int (+ .def_10 .def_166))
(define-fun .def_168 () Bool (= .def_167 (- 1)))
(define-fun .def_169 () Bool (and .def_80 .def_168))
(define-fun .def_173 () Bool (and .def_169 .def_172))
(define-fun .def_14 () Int (! |!{$(in_main#0)<k>}| :next |!{$(in_main#0)<k>}.next|))
(define-fun .def_86 () Bool (= .def_14 |!{$(in_main#0)<k>}.next|))
(define-fun .def_174 () Bool (and .def_86 .def_173))
(define-fun .def_176 () Bool (and .def_174 .def_175))
(define-fun .def_177 () Bool (and .def_90 .def_176))
(define-fun .def_147 () Int (+ .def_12 (- 1)))
(define-fun .def_148 () Int (select .def_18 .def_147))
(define-fun .def_158 () Bool (= .def_148 |%{$(in_main#0)<min>}#4|))
(define-fun .def_149 () Bool (<= |%{$(in_main#0)<min>}#2| .def_148))
(define-fun .def_150 () Bool (not .def_149))
(define-fun .def_160 () Bool (and .def_150 .def_158))
(define-fun .def_157 () Bool (= |%{$(in_main#0)<min>}#2| |%{$(in_main#0)<min>}#4|))
(define-fun .def_159 () Bool (and .def_149 .def_157))
(define-fun .def_161 () Bool (or .def_159 .def_160))
(define-fun .def_178 () Bool (and .def_161 .def_177))
(define-fun .def_134 () Int (select .def_18 .def_10))
(define-fun .def_142 () Bool (= .def_134 |%{$(in_main#0)<min>}#2|))
(define-fun .def_135 () Bool (<= .def_16 .def_134))
(define-fun .def_136 () Bool (not .def_135))
(define-fun .def_144 () Bool (and .def_136 .def_142))
(define-fun .def_141 () Bool (= .def_16 |%{$(in_main#0)<min>}#2|))
(define-fun .def_143 () Bool (and .def_135 .def_141))
(define-fun .def_145 () Bool (or .def_143 .def_144))
(define-fun .def_179 () Bool (and .def_145 .def_178))
(define-fun .def_180 () Bool (and .def_133 .def_179))
(define-fun .def_188 () Bool (and .def_180 .def_187))
(define-fun .def_191 () Bool (or .def_188 .def_190))
(define-fun .def_120 () Bool (= !pc.next 0))
(define-fun .def_111 () Bool (= .def_32 78))
(define-fun .def_121 () Bool (and .def_111 .def_120))
(define-fun .def_70 () Bool (<= .def_8 .def_14))
(define-fun .def_104 () Bool (and .def_70 .def_80))
(define-fun .def_105 () Bool (and .def_82 .def_104))
(define-fun .def_106 () Bool (and .def_84 .def_105))
(define-fun .def_107 () Bool (and .def_86 .def_106))
(define-fun .def_108 () Bool (and .def_88 .def_107))
(define-fun .def_109 () Bool (and .def_90 .def_108))
(define-fun .def_122 () Bool (and .def_109 .def_121))
(define-fun .def_117 () Bool (and .def_111 .def_116))
(define-fun .def_96 () Int (* (- 1) |!{$(in_main#0)<k>}.next|))
(define-fun .def_97 () Int (+ .def_14 .def_96))
(define-fun .def_98 () Bool (= .def_97 (- 1)))
(define-fun .def_99 () Bool (and .def_94 .def_98))
(define-fun .def_100 () Bool (and .def_88 .def_99))
(define-fun .def_101 () Bool (and .def_90 .def_100))
(define-fun .def_72 () Int (select .def_18 .def_14))
(define-fun .def_73 () Bool (<= .def_16 .def_72))
(define-fun .def_74 () Int (ite .def_73 1 0))
(define-fun .def_75 () Bool (= .def_74 0))
(define-fun .def_76 () Bool (not .def_75))
(define-fun .def_102 () Bool (and .def_76 .def_101))
(define-fun .def_71 () Bool (not .def_70))
(define-fun .def_103 () Bool (and .def_71 .def_102))
(define-fun .def_118 () Bool (and .def_103 .def_117))
(define-fun .def_113 () Bool (= !pc.next 98))
(define-fun .def_114 () Bool (and .def_111 .def_113))
(define-fun .def_81 () Bool (and .def_75 .def_80))
(define-fun .def_83 () Bool (and .def_81 .def_82))
(define-fun .def_85 () Bool (and .def_83 .def_84))
(define-fun .def_87 () Bool (and .def_85 .def_86))
(define-fun .def_89 () Bool (and .def_87 .def_88))
(define-fun .def_91 () Bool (and .def_89 .def_90))
(define-fun .def_92 () Bool (and .def_71 .def_91))
(define-fun .def_115 () Bool (and .def_92 .def_114))
(define-fun .def_119 () Bool (or .def_115 .def_118))
(define-fun .def_123 () Bool (or .def_119 .def_122))
(define-fun .def_68 () Bool (and .def_35 .def_67))
(define-fun .def_63 () Bool (= |!{$(in_main#0)<array.1>}.next| |%{$(in_main#0)<array.1>}#1|))
(define-fun .def_53 () Int (select |%{$(in_main#0)<array.1>}#1| 0))
(define-fun .def_61 () Bool (= |!{$(in_main#0)<min>}.next| .def_53))
(define-fun .def_59 () Bool (= |!{$(in_main#0)<k>}.next| |%{$(in_main#0)<k>}#1|))
(define-fun .def_57 () Bool (= |!{$(in_main#0)<j>}.next| |!{$(in_main#0)<$(in___VERIFIER_nondet_int#0)<h#<__VERIFIER_nondet_int.return>>>}|))
(define-fun .def_55 () Bool (= |!{$(in_main#0)<i>}.next| 0))
(define-fun .def_54 () Bool (= |!{$(in_main#0)<N>}.next| |!{$(in_main#0)<$(in___VERIFIER_nondet_int#0)<h#<__VERIFIER_nondet_int.return>>>}|))
(define-fun .def_56 () Bool (and .def_54 .def_55))
(define-fun .def_58 () Bool (and .def_56 .def_57))
(define-fun .def_60 () Bool (and .def_58 .def_59))
(define-fun .def_62 () Bool (and .def_60 .def_61))
(define-fun .def_64 () Bool (and .def_62 .def_63))
(define-fun .def_48 () Bool (<= |!{$(in_main#0)<$(in___VERIFIER_nondet_int#0)<h#<__VERIFIER_nondet_int.return>>>}| 0))
(define-fun .def_49 () Bool (not .def_48))
(define-fun .def_50 () Int (ite .def_49 1 0))
(define-fun .def_51 () Bool (= .def_50 0))
(define-fun .def_52 () Bool (not .def_51))
(define-fun .def_65 () Bool (and .def_52 .def_64))
(define-fun .def_69 () Bool (and .def_65 .def_68))
(define-fun .def_124 () Bool (or .def_69 .def_123))
(define-fun .def_192 () Bool (! (or .def_124 .def_191) :trans true))
(define-fun .def_125 () Bool (= .def_32 98))
(define-fun .def_193 () Bool (! (not .def_125) :invar-property 0 :invar-property-name ||))
(assert true)
